
Gurobi 11.0.1 (win64) logging started Sat Mar 16 22:21:05 2024

Set parameter LogFile to value "res/logfile/blp-ar98log.txt"
Gurobi Optimizer version 11.0.1 build v11.0.1rc0 (win64 - Windows 11.0 (22621.2))

CPU model: AMD Ryzen Threadripper PRO 5975WX 32-Cores, instruction set [SSE2|AVX|AVX2]
Thread count: 32 physical cores, 64 logical processors, using up to 10 threads

Optimize a model with 1128 rows, 16021 columns and 200601 nonzeros
Model fingerprint: 0xc7bf7286
Variable types: 215 continuous, 15806 integer (15806 binary)
Coefficient statistics:
  Matrix range     [1e+00, 1e+03]
  Objective range  [1e+00, 1e+00]
  Bounds range     [1e+00, 4e+04]
  RHS range        [1e+00, 1e+00]
Presolve removed 19 rows and 1958 columns
Presolve time: 0.44s
Presolved: 1109 rows, 14063 columns, 157817 nonzeros
Variable types: 0 continuous, 14063 integer (13947 binary)
Deterministic concurrent LP optimizer: primal and dual simplex
Showing primal log only...

Concurrent spin time: 0.00s

Solved with dual simplex

Root relaxation: objective 6.017661e+03, 455 iterations, 0.05 seconds (0.10 work units)

    Nodes    |    Current Node    |     Objective Bounds      |     Work
 Expl Unexpl |  Obj  Depth IntInf | Incumbent    BestBd   Gap | It/Node Time

     0     0 6017.66139    0  139          - 6017.66139      -     -    0s
H    0     0                    9269.6635072 6017.66139  35.1%     -    0s
H    0     0                    8121.8061280 6017.66139  25.9%     -    0s
     0     0 6077.32962    0  154 8121.80613 6077.32962  25.2%     -    1s
H    0     0                    6224.1335808 6077.50254  2.36%     -    2s
     0     0 6102.41369    0  158 6224.13358 6102.41369  1.96%     -    2s
     0     0 6102.41369    0  166 6224.13358 6102.41369  1.96%     -    2s
     0     0 6102.41369    0  165 6224.13358 6102.41369  1.96%     -    2s
     0     0 6103.05535    0  171 6224.13358 6103.05535  1.95%     -    2s
     0     0 6103.14869    0  168 6224.13358 6103.14869  1.94%     -    2s
     0     0 6126.83051    0  173 6224.13358 6126.83051  1.56%     -    2s
     0     0 6134.19096    0  187 6224.13358 6134.19096  1.45%     -    2s
     0     0 6138.66315    0  164 6224.13358 6138.66315  1.37%     -    3s
     0     0 6143.57733    0  192 6224.13358 6143.57733  1.29%     -    3s
     0     0 6144.04093    0  198 6224.13358 6144.04093  1.29%     -    3s
     0     0 6144.11129    0  200 6224.13358 6144.11129  1.29%     -    3s
     0     0 6144.11199    0  203 6224.13358 6144.11199  1.29%     -    3s
     0     0 6153.04582    0  176 6224.13358 6153.04582  1.14%     -    3s
     0     0 6153.04582    0  141 6224.13358 6153.04582  1.14%     -    3s
     0     0 6153.04582    0  137 6224.13358 6153.04582  1.14%     -    4s
H    0     0                    6223.9579040 6153.04582  1.14%     -    4s
     0     0 6153.04582    0  149 6223.95790 6153.04582  1.14%     -    4s
     0     0 6153.04582    0  159 6223.95790 6153.04582  1.14%     -    4s
     0     0 6155.51366    0  167 6223.95790 6155.51366  1.10%     -    4s
     0     0 6158.03442    0  154 6223.95790 6158.03442  1.06%     -    4s
     0     0 6158.46590    0  155 6223.95790 6158.46590  1.05%     -    4s
     0     0 6158.59787    0  155 6223.95790 6158.59787  1.05%     -    4s
H    0     0                    6220.5803472 6162.63055  0.93%     -    4s
     0     0 6162.63055    0  163 6220.58035 6162.63055  0.93%     -    4s
     0     0 6166.18203    0  162 6220.58035 6166.18203  0.87%     -    5s
     0     0 6167.59584    0  180 6220.58035 6167.59584  0.85%     -    5s
     0     0 6168.10201    0  170 6220.58035 6168.10201  0.84%     -    5s
     0     0 6168.21463    0  181 6220.58035 6168.21463  0.84%     -    5s
     0     0 6168.22039    0  180 6220.58035 6168.22039  0.84%     -    5s
     0     0 6173.03105    0  173 6220.58035 6173.03105  0.76%     -    5s
     0     0 6173.91286    0  177 6220.58035 6173.91286  0.75%     -    5s
     0     0 6174.42240    0  183 6220.58035 6174.42240  0.74%     -    5s
     0     0 6174.48680    0  191 6220.58035 6174.48680  0.74%     -    5s
     0     0 6178.58885    0  175 6220.58035 6178.58885  0.68%     -    6s
     0     0 6178.58885    0  142 6220.58035 6178.58885  0.68%     -    6s
     0     0 6178.58885    0  151 6220.58035 6178.58885  0.68%     -    7s
     0     0 6178.58885    0  144 6220.58035 6178.58885  0.68%     -    7s
     0     0 6178.58885    0  141 6220.58035 6178.58885  0.68%     -    7s
     0     0 6178.58885    0  155 6220.58035 6178.58885  0.68%     -    7s
     0     0 6178.58885    0  175 6220.58035 6178.58885  0.68%     -    7s
     0     0 6178.58885    0  166 6220.58035 6178.58885  0.68%     -    7s
     0     0 6178.71332    0  169 6220.58035 6178.71332  0.67%     -    7s
     0     0 6178.75732    0  170 6220.58035 6178.75732  0.67%     -    7s
     0     0 6179.90955    0  193 6220.58035 6179.90955  0.65%     -    7s
     0     0 6180.21842    0  182 6220.58035 6180.21842  0.65%     -    7s
     0     0 6180.23612    0  188 6220.58035 6180.23612  0.65%     -    7s
     0     0 6181.65164    0  201 6220.58035 6181.65164  0.63%     -    8s
     0     0 6181.66666    0  195 6220.58035 6181.66666  0.63%     -    8s
     0     2 6181.66666    0  194 6220.58035 6181.66666  0.63%     -    9s
    45    50 6182.75582    6  204 6220.58035 6182.69069  0.61%   110   10s
H   47    50                    6220.4925088 6182.69069  0.61%   105   10s
  1795  1641 6209.72608   69  193 6220.49251 6183.36122  0.60%  42.2   15s
  1850  1677 6213.91289   89  224 6220.49251 6188.26733  0.52%  40.9   20s
H 1871  1604                    6214.7830128 6188.78154  0.42%  40.4   24s
  1875  1607 6206.18090   40  205 6214.78301 6188.85561  0.42%  40.4   25s
H 1880  1530                    6209.7280832 6188.85561  0.34%  43.3   25s
  1946  1576 6206.84626   42  231 6209.72808 6190.75675  0.31%  43.8   30s
  2403  1803 6195.38003   56  170 6209.72808 6192.26359  0.28%  53.0   35s
* 5641  2423              81    6206.8856832 6195.58910  0.18%  60.0   39s
  6899  2659 6199.82511   56  167 6206.88568 6196.29476  0.17%  62.0   40s
H 7664  2691                    6205.8713200 6196.78616  0.15%  62.8   40s
*11442  3940              79    6205.8357120 6198.80351  0.11%  64.3   43s
 13460  4252 6205.46703   63  176 6205.83571 6199.49875  0.10%  64.8   45s
 13965  4315 6205.75778   67  157 6205.83571 6199.49875  0.10%  66.6   50s
H18530  3171                    6205.5993616 6202.31154  0.05%  70.3   54s
*19715  1796              82    6205.2147104 6203.73705  0.02%  70.1   54s

Cutting planes:
  Gomory: 20
  Cover: 9
  Implied bound: 6
  MIR: 217
  StrongCG: 24
  Flow cover: 90
  GUB cover: 4
  Zero half: 37
  Mod-K: 1
  RLT: 1
  Relax-and-lift: 3

Explored 20247 nodes (1413468 simplex iterations) in 54.81 seconds (108.83 work units)
Thread count was 10 (of 64 available processors)

Solution count 10: 6205.21 6205.6 6205.84 ... 6220.49

Optimal solution found (tolerance 1.00e-04)
Best objective 6.205214710400e+03, best bound 6.204700716328e+03, gap 0.0083%

User-callback calls 43781, time in user-callback 0.00 sec
